Maximize

27.5 b0 + 22.5 b1 + 33.0 b2 + 57.0 b3 + 31.0 b4 + 15.5 b5 + 64.0 b6.v0 + 64.0 b6.v1 + 15.5 b7 + 20.5 b8 + 19.5 b9 + 51.5 b10 + 1 b11 + 8 b12 + 1 b13 + 65.0 b14.v0 + 65.0 b14.v1 + 65.0 b14.v2 + 12.5 b15.v0 + 14.5 b15.v1 + 20.5 b16 + 464.5 b17 + 156.0 b18 + 51.5 b19 + 7 b20.v0 + 5 b20.v1 + 368.0 b21 + 6 b22 + 8 b23 + 10 b24 + 18.5 b25 + 47.5 b26


Subject to

\ === tcfg constraints ===
dSta_0 = 1
b0 - dSta_0 = 0
b0 - d0_1 = 0
b1 - d0_1 = 0
b1 - d1_2 = 0
b2 - d1_2 = 0
b2 - d2_3 = 0
b3 - d2_3 = 0
b3 - d3_6 - d3_4 = 0
b4 - d3_4 = 0
b4 - d4_14 - d4_5 = 0
b5 - d4_5 = 0
b5 - d5_7 - d5_6 = 0
b6 - d3_6 - d5_6 = 0
b7 - d5_7 = 0
b7 - d7_8 = 0
b8 - d7_8 = 0
b8 - d8_26 - d8_9 = 0
b9 - d8_9 = 0
b9 - d9_14 - d9_10 = 0
b10 - d9_10 = 0
b10 - d10_15 - d10_11 = 0
b11 - d10_11 = 0
b11 - d11_12 = 0
b12 - d11_12 = 0
b12 - d12_25 - d12_13 = 0
b13 - d12_13 = 0
b13 - d13_14 = 0
b14 - d9_14 - d13_14 - d4_14 = 0
b14 - d14_15 = 0
b15 - d14_15 - d10_15 = 0
b15 - d15_16 = 0
b16 - d15_16 = 0
b16 - d16_17 = 0
b17 - d16_17 = 0
b17 - d17_18 = 0
b18 - d17_18 = 0
b18 - d18_20 - d18_19 = 0
b19 - d18_19 = 0
b19 - d19_20 = 0
b20 - d18_20 - d19_20 = 0
b20 - d20_21 = 0
b21 - d20_21 = 0
b21 - d21_22 = 0
b22 - d21_22 = 0
b22 - d22_23 = 0
b23 - d22_23 = 0
b23 - d23_24 = 0
b24 - d23_24 = 0
b25 - d12_25 = 0
b26 - d8_26 = 0


\ === header constraints ===



\ === context constraints ===
b6 - b6.v0 - b6.v1 = 0
b6.v0 - d3_6 = 0
b6.v1 - d5_6 = 0
b14 - b14.v0 - b14.v1 - b14.v2 = 0
b14.v0 - d9_14 = 0
b14.v1 - d13_14 = 0
b14.v2 - d4_14 = 0
b15 - b15.v0 - b15.v1 = 0
b15.v0 - d14_15 = 0
b15.v1 - d10_15 = 0
b20 - b20.v0 - b20.v1 = 0
b20.v0 - d18_20 = 0
b20.v1 - d19_20 = 0


\ === inst cache constraints ===



\ === data cache constraints ===



Generals


b0
b1
b2
b3
b4
b5
b6
b6.v0
b6.v1
b7
b8
b9
b10
b11
b12
b13
b14
b14.v0
b14.v1
b14.v2
b15
b15.v0
b15.v1
b16
b17
b18
b19
b20
b20.v0
b20.v1
b21
b22
b23
b24
b25
b26
d0_1
d1_2
d2_3
d3_4
d3_6
d4_5
d4_14
d5_6
d5_7
d7_8
d8_9
d8_26
d9_10
d9_14
d10_11
d10_15
d11_12
d12_13
d12_25
d13_14
d14_15
d15_16
d16_17
d17_18
d18_19
d18_20
d19_20
d20_21
d21_22
d22_23
d23_24
dSta_0


End
\ total cons: 77    total vars: 68
